35	1

10	

0	0	3	2	3	4	
5	5	2	7	8	
6	1	3	5	6	7	
7	1	1	5	
3	3	3	10	11	12	
1	1	1	11	
1	2	1	9	
3	1	1	9	
2	1	2	15	16	
2	1	1	13	
3	1	1	16	
6	3	2	13	14	
9	1	1	20	
3	1	1	19	
1	3	2	17	18	
6	5	1	19	
9	2	3	21	23	24	
3	3	2	22	23	
5	3	2	23	24	
2	1	2	21	24	
2	4	3	26	27	28	
5	2	2	25	28	
5	5	2	26	28	
7	3	2	25	26	
2	3	1	29	
5	5	1	31	
3	3	1	32	
4	1	1	30	
2	3	1	33	
3	5	1	34	
1	6	1	34	
2	2	2	33	34	
2	3	1	35	
1	4	1	35	
0	0	0	
